
Value of objective function: 44.00000000

Actual values of the variables:
C1                              1
C2                              0
C3                              0
C4                              0
C5                              0
C6                              0
C7                              1
C8                              1
C9                              0
C10                             0
C11                             0
C12                             1
C13                             0
C14                             0
C15                             0
C16                             1
C17                             0
C18                             0
C19                             0
C20                             0
C21                             0
C22                             0
C23                             0
C24                             0
C25                             0
C26                             0
C27                             1
C28                             0
C29                             0
C30                             0
C31                             0
C32                             0
C33                             0
C34                             0
C35                             0
C36                             0
C37                             0
C38                             0
C39                             0
C40                             0

Actual values of the constraints:
R1                              0
R2                              0
R3                              0
R4                              0
R5                              0
R6                              0
R7                              0
R8                              0
R9                              0
R10                             0
R11                             0
R12                             0
R13                             0
R14                             0
R15                             0
R16                             0
R17                             0
R18                             0
R19                             0
R20                             0
R21                             0
R22                             0
R23                             0
R24                             0
R25                             0
R26                             0
R27                             0
R28                             0
R29                             0
R30                             0
R31                             0
R32                             0
R33                             0
R34                             0
R35                             0
R36                             0
R37                             0
R38                             0
R39                             0
R40                             0
R41                             0
R42                             0
R43                             0
R44                             0
R45                             1
R46                             2
R47                             1
R48                             1
R49                             1
R50                             1
R51                             1
R52                             0
R53                             0
R54                             1
R55                             1
R56                             0
R57                             0
R58                             0
R59                             1
R60                             1
R61                             0
R62                             0
R63                             0
R64                             1
R65                             1
R66                             1
R67                             0
R68                             0
R69                             1
R70                             0
R71                             0
R72                             0
R73                             0
R74                             1
R75                             0
R76                             1
R77                             0
R78                             0
R79                             1
R80                             1
R81                             0
R82                             0
R83                             0
R84                             1
R85                             0
R86                             0
R87                             0
R88                             0
